# Objective value = 8
x0,1_1 0
x0,1_10 0
x0,1_13 0
x0,1_43 0
x0,1_61 0
x0,1_66 0
x0,1_76 0
x0,1_97 0
x0,1_98 0
x0,1_99 0
x0,2_1 0
x0,2_10 0
x0,2_13 0
x0,2_43 0
x0,2_61 0
x0,2_66 0
x0,2_76 0
x0,2_97 0
x0,2_98 0
x0,2_99 0
x0,3_1 0
x0,3_10 0
x0,3_13 0
x0,3_43 0
x0,3_61 0
x0,3_66 1
x0,3_76 0
x0,3_97 0
x0,3_98 0
x0,3_99 0
x0,4_1 0
x0,4_10 0
x0,4_13 0
x0,4_43 0
x0,4_61 0
x0,4_66 0
x0,4_76 0
x0,4_97 0
x0,4_98 0
x0,4_99 0
x0,5_1 0
x0,5_10 0
x0,5_13 0
x0,5_43 0
x0,5_61 0
x0,5_66 0
x0,5_76 0
x0,5_97 1
x0,5_98 0
x0,5_99 0
x0,6_1 0
x0,6_10 0
x0,6_13 0
x0,6_43 0
x0,6_61 0
x0,6_66 0
x0,6_76 0
x0,6_97 0
x0,6_98 1
x0,6_99 0
x0,7_1 0
x0,7_10 0
x0,7_13 0
x0,7_43 0
x0,7_61 0
x0,7_66 0
x0,7_76 0
x0,7_97 0
x0,7_98 0
x0,7_99 1
x0,8_1 0
x0,8_10 0
x0,8_13 0
x0,8_43 0
x0,8_61 0
x0,8_66 0
x0,8_76 0
x0,8_97 0
x0,8_98 0
x0,8_99 0
x0,9_1 0
x0,9_10 0
x0,9_13 0
x0,9_43 0
x0,9_61 0
x0,9_66 0
x0,9_76 0
x0,9_97 0
x0,9_98 0
x0,9_99 0
x0,10_1 0
x0,10_10 0
x0,10_13 0
x0,10_43 0
x0,10_61 0
x0,10_66 0
x0,10_76 0
x0,10_97 0
x0,10_98 0
x0,10_99 0
x1,2_1 0
x1,2_10 0
x1,2_13 1
x1,2_43 0
x1,2_61 0
x1,2_66 0
x1,2_76 0
x1,2_97 0
x1,2_98 0
x1,2_99 0
x1,3_1 0
x1,3_10 0
x1,3_13 0
x1,3_43 1
x1,3_61 0
x1,3_66 0
x1,3_76 0
x1,3_97 0
x1,3_98 0
x1,3_99 0
x1,4_1 0
x1,4_10 0
x1,4_13 0
x1,4_43 0
x1,4_61 0
x1,4_66 0
x1,4_76 0
x1,4_97 0
x1,4_98 0
x1,4_99 0
x1,5_1 0
x1,5_10 0
x1,5_13 0
x1,5_43 0
x1,5_61 0
x1,5_66 0
x1,5_76 0
x1,5_97 0
x1,5_98 0
x1,5_99 0
x1,6_1 0
x1,6_10 0
x1,6_13 0
x1,6_43 0
x1,6_61 0
x1,6_66 0
x1,6_76 0
x1,6_97 0
x1,6_98 0
x1,6_99 0
x1,7_1 0
x1,7_10 0
x1,7_13 0
x1,7_43 0
x1,7_61 0
x1,7_66 0
x1,7_76 1
x1,7_97 0
x1,7_98 0
x1,7_99 0
x1,8_1 0
x1,8_10 0
x1,8_13 0
x1,8_43 0
x1,8_61 0
x1,8_66 0
x1,8_76 0
x1,8_97 0
x1,8_98 0
x1,8_99 0
x1,9_1 0
x1,9_10 0
x1,9_13 0
x1,9_43 0
x1,9_61 0
x1,9_66 0
x1,9_76 0
x1,9_97 0
x1,9_98 0
x1,9_99 0
x1,10_1 0
x1,10_10 0
x1,10_13 0
x1,10_43 0
x1,10_61 0
x1,10_66 0
x1,10_76 0
x1,10_97 0
x1,10_98 0
x1,10_99 0
x2,3_1 0
x2,3_10 0
x2,3_13 0
x2,3_43 0
x2,3_61 0
x2,3_66 0
x2,3_76 0
x2,3_97 0
x2,3_98 0
x2,3_99 0
x2,4_1 0
x2,4_10 0
x2,4_13 0
x2,4_43 0
x2,4_61 0
x2,4_66 0
x2,4_76 0
x2,4_97 0
x2,4_98 0
x2,4_99 0
x2,5_1 0
x2,5_10 0
x2,5_13 0
x2,5_43 0
x2,5_61 1
x2,5_66 0
x2,5_76 0
x2,5_97 0
x2,5_98 0
x2,5_99 0
x2,6_1 0
x2,6_10 0
x2,6_13 0
x2,6_43 0
x2,6_61 0
x2,6_66 0
x2,6_76 0
x2,6_97 0
x2,6_98 0
x2,6_99 0
x2,7_1 0
x2,7_10 0
x2,7_13 0
x2,7_43 0
x2,7_61 0
x2,7_66 0
x2,7_76 0
x2,7_97 0
x2,7_98 0
x2,7_99 0
x2,8_1 0
x2,8_10 0
x2,8_13 0
x2,8_43 0
x2,8_61 0
x2,8_66 0
x2,8_76 0
x2,8_97 0
x2,8_98 0
x2,8_99 0
x2,9_1 0
x2,9_10 0
x2,9_13 0
x2,9_43 0
x2,9_61 0
x2,9_66 0
x2,9_76 0
x2,9_97 0
x2,9_98 0
x2,9_99 0
x2,10_1 0
x2,10_10 0
x2,10_13 0
x2,10_43 0
x2,10_61 0
x2,10_66 0
x2,10_76 0
x2,10_97 0
x2,10_98 0
x2,10_99 0
x3,4_1 0
x3,4_10 0
x3,4_13 0
x3,4_43 0
x3,4_61 0
x3,4_66 0
x3,4_76 0
x3,4_97 0
x3,4_98 0
x3,4_99 0
x3,5_1 0
x3,5_10 0
x3,5_13 0
x3,5_43 0
x3,5_61 0
x3,5_66 0
x3,5_76 0
x3,5_97 0
x3,5_98 0
x3,5_99 0
x3,6_1 0
x3,6_10 0
x3,6_13 0
x3,6_43 0
x3,6_61 0
x3,6_66 0
x3,6_76 0
x3,6_97 0
x3,6_98 0
x3,6_99 0
x3,7_1 0
x3,7_10 0
x3,7_13 0
x3,7_43 0
x3,7_61 0
x3,7_66 0
x3,7_76 0
x3,7_97 0
x3,7_98 0
x3,7_99 0
x3,8_1 0
x3,8_10 0
x3,8_13 0
x3,8_43 0
x3,8_61 0
x3,8_66 0
x3,8_76 0
x3,8_97 0
x3,8_98 0
x3,8_99 0
x3,9_1 0
x3,9_10 0
x3,9_13 0
x3,9_43 0
x3,9_61 0
x3,9_66 0
x3,9_76 0
x3,9_97 0
x3,9_98 0
x3,9_99 0
x3,10_1 0
x3,10_10 0
x3,10_13 0
x3,10_43 0
x3,10_61 0
x3,10_66 0
x3,10_76 0
x3,10_97 0
x3,10_98 0
x3,10_99 0
x4,5_1 0
x4,5_10 0
x4,5_13 0
x4,5_43 0
x4,5_61 0
x4,5_66 0
x4,5_76 0
x4,5_97 0
x4,5_98 0
x4,5_99 0
x4,6_1 0
x4,6_10 1
x4,6_13 0
x4,6_43 0
x4,6_61 0
x4,6_66 0
x4,6_76 0
x4,6_97 0
x4,6_98 0
x4,6_99 0
x4,7_1 0
x4,7_10 0
x4,7_13 0
x4,7_43 0
x4,7_61 0
x4,7_66 0
x4,7_76 0
x4,7_97 0
x4,7_98 0
x4,7_99 0
x4,8_1 0
x4,8_10 0
x4,8_13 0
x4,8_43 0
x4,8_61 0
x4,8_66 0
x4,8_76 0
x4,8_97 0
x4,8_98 0
x4,8_99 0
x4,9_1 0
x4,9_10 0
x4,9_13 0
x4,9_43 0
x4,9_61 0
x4,9_66 0
x4,9_76 0
x4,9_97 0
x4,9_98 0
x4,9_99 0
x4,10_1 0
x4,10_10 0
x4,10_13 0
x4,10_43 0
x4,10_61 0
x4,10_66 0
x4,10_76 0
x4,10_97 0
x4,10_98 0
x4,10_99 0
x5,6_1 0
x5,6_10 0
x5,6_13 0
x5,6_43 0
x5,6_61 0
x5,6_66 0
x5,6_76 0
x5,6_97 0
x5,6_98 0
x5,6_99 0
x5,7_1 0
x5,7_10 0
x5,7_13 0
x5,7_43 0
x5,7_61 0
x5,7_66 0
x5,7_76 0
x5,7_97 0
x5,7_98 0
x5,7_99 0
x5,8_1 0
x5,8_10 0
x5,8_13 0
x5,8_43 0
x5,8_61 0
x5,8_66 0
x5,8_76 0
x5,8_97 0
x5,8_98 0
x5,8_99 0
x5,9_1 0
x5,9_10 0
x5,9_13 0
x5,9_43 0
x5,9_61 0
x5,9_66 0
x5,9_76 0
x5,9_97 0
x5,9_98 0
x5,9_99 0
x5,10_1 0
x5,10_10 0
x5,10_13 0
x5,10_43 0
x5,10_61 0
x5,10_66 0
x5,10_76 0
x5,10_97 0
x5,10_98 0
x5,10_99 0
x6,7_1 1
x6,7_10 0
x6,7_13 0
x6,7_43 0
x6,7_61 0
x6,7_66 0
x6,7_76 0
x6,7_97 0
x6,7_98 0
x6,7_99 0
x6,8_1 0
x6,8_10 0
x6,8_13 0
x6,8_43 0
x6,8_61 0
x6,8_66 0
x6,8_76 0
x6,8_97 0
x6,8_98 0
x6,8_99 0
x6,9_1 0
x6,9_10 0
x6,9_13 0
x6,9_43 0
x6,9_61 0
x6,9_66 0
x6,9_76 0
x6,9_97 0
x6,9_98 0
x6,9_99 0
x6,10_1 0
x6,10_10 0
x6,10_13 0
x6,10_43 0
x6,10_61 0
x6,10_66 0
x6,10_76 0
x6,10_97 0
x6,10_98 0
x6,10_99 0
x7,8_1 0
x7,8_10 0
x7,8_13 0
x7,8_43 0
x7,8_61 0
x7,8_66 0
x7,8_76 0
x7,8_97 0
x7,8_98 0
x7,8_99 0
x7,9_1 0
x7,9_10 0
x7,9_13 0
x7,9_43 0
x7,9_61 0
x7,9_66 0
x7,9_76 0
x7,9_97 0
x7,9_98 0
x7,9_99 0
x7,10_1 0
x7,10_10 0
x7,10_13 0
x7,10_43 0
x7,10_61 0
x7,10_66 0
x7,10_76 0
x7,10_97 0
x7,10_98 0
x7,10_99 0
x8,9_1 0
x8,9_10 0
x8,9_13 0
x8,9_43 0
x8,9_61 0
x8,9_66 0
x8,9_76 0
x8,9_97 0
x8,9_98 0
x8,9_99 0
x8,10_1 0
x8,10_10 0
x8,10_13 0
x8,10_43 0
x8,10_61 0
x8,10_66 0
x8,10_76 0
x8,10_97 0
x8,10_98 0
x8,10_99 0
x9,10_1 0
x9,10_10 0
x9,10_13 0
x9,10_43 0
x9,10_61 0
x9,10_66 0
x9,10_76 0
x9,10_97 0
x9,10_98 0
x9,10_99 0
z0 1
z1 1
z2 1
z3 1
z4 1
z5 1
z6 1
z7 1
z8 0
z9 0
z10 0
p0 1
p1 24
p2 37
p3 67
p4 89
p5 98
p6 99
p7 100
p8 101
p9 102
p10 103
